54 662
3 4 7 9 11 14 16 17 18 19 22 23 24 26 37 38 41 47 50
4 5 6 9 15 17 19 23 24 26 27 31 33 34 36 37 40 41 42 43 50 51 52
5 6 7 8 9 11 14 15 17 19 22 28 30 32 34 37 38 40 44 46 48 51 53
0 5 6 7 9 11 12 14 15 16 19 20 21 22 24 25 26 27 29 30 32 35 41 44 45 46 47 48
0 1 5 8 9 11 14 16 19 22 23 24 27 30 35 38 41 43 46 48 50 52
1 2 3 4 6 12 13 16 17 18 19 22 23 25 28 29 45 47 49 50 51
1 2 3 5 7 9 10 11 13 15 17 18 19 23 24 25 26 27 29 30 31 33 34 35 36 38 41 49 52 53
0 2 3 6 8 12 13 14 17 25 28 31 33 34 35 37 38 39 40 42 44 48 49 50 51 52
2 4 7 9 10 12 14 16 17 18 25 28 29 32 33 38 42 43 44 50 51
0 1 2 3 4 6 8 13 14 16 18 19 20 21 23 27 29 30 33 34 35 38 40 41 47 48 50 51
6 8 11 13 14 15 16 20 22 26 27 28 32 34 36 40 41 43 45 47 48 49 51
0 2 3 4 6 10 16 18 19 21 27 32 35 36 37 38 39 40 41 42 43 44 45 46 47 48 50 51 52 53
3 5 7 8 13 15 20 22 23 24 25 29 31 33 37 38 39 41 45 47 52 53
5 6 7 9 10 12 20 21 22 26 27 33 34 35 37 38 41 44 45 46 47 48 50 53
0 2 3 4 7 8 9 10 17 21 24 26 28 29 31 32 33 34 35 38 40 41 42 46 48 50 51 52
1 2 3 6 10 12 17 18 19 20 21 23 26 28 29 36 38 39 40 41 42 44 46 51 52
0 3 4 5 8 9 10 11 18 19 24 27 32 33 36 38 39 42 43 44 48 51 52
0 1 2 5 6 7 8 14 15 18 19 20 22 25 27 32 33 35 37 38 40 41 42 46 48 51 52
0 5 6 8 9 11 15 16 17 19 25 26 29 30 31 33 35 36 46 49 51 53
0 1 2 3 4 5 6 9 11 15 16 17 18 20 26 31 34 35 36 41 42 43 45 49 52 53
3 9 10 12 13 15 17 19 21 28 29 30 31 32 34 38 39 40 51
3 9 11 13 14 15 20 23 24 27 29 31 32 33 36 38 39 44 46 47 48 52 53
0 2 3 4 5 10 12 13 17 24 25 26 27 31 32 35 38 39 40 41 42 44 45 46 49 50 51 52
0 1 4 5 6 9 12 15 21 25 27 28 29 32 37 41 42 43 45 46 53
0 1 3 4 6 12 14 16 21 22 25 26 29 32 34 36 37 38 40 41 42 44 45 46 48 50
3 5 6 7 8 12 17 18 22 23 24 26 30 31 33 35 37 45 46 52 53
0 1 3 6 10 13 14 15 18 19 22 24 25 29 34 35 36 37 38 39 42 51 52 53
1 3 4 6 9 10 11 13 16 17 21 22 23 29 31 32 36 38 39 41 43 44 46 47 49 50 52
2 5 7 8 10 14 15 20 23 30 32 33 36 39 43 44 45 46 47 48 51 52
3 5 6 8 9 12 14 15 18 20 21 23 24 26 27 30 31 32 34 36 38 39 41 42 45 49 50 52 53
2 3 4 6 9 18 20 25 28 29 31 34 36 38 41 45 48 49 52 53
1 6 7 12 14 18 19 20 21 22 25 27 29 30 32 33 37 39 40 43 45 46 47 49 53
2 3 8 10 11 14 16 17 20 21 22 23 24 27 28 29 31 35 36 37 39 40 43 44 46 47 48 49 50
1 6 7 8 9 12 13 14 16 17 18 21 25 28 31 34 36 40 41 42 43 44 45 47 48 49 50 53
1 2 6 7 9 10 13 14 19 20 24 26 29 30 33 36 37 39 40 43 46 47 49 50 53
3 4 6 7 9 11 13 14 17 18 19 22 25 26 32 37 38 40 41 44 45 46 48 50 51
1 6 10 11 15 16 18 19 21 24 26 27 28 29 30 32 33 34 38 43 44 47 51 53
0 1 2 7 11 12 13 17 23 24 25 26 31 32 34 35 40 44 45 48 49 51 52
0 2 4 6 7 8 9 11 12 13 14 15 16 17 20 21 22 24 26 27 29 30 35 36 48 49 53
7 11 12 15 16 20 21 22 26 27 28 29 31 32 34 40 42 44 45 46 47 48 49
1 2 7 9 10 11 14 15 17 20 22 24 31 32 33 34 35 37 39 41 42 44 46 48 51
0 1 3 4 6 9 10 11 12 13 14 15 17 19 22 23 24 27 29 30 33 35 40 43 44 46 49 50 51 52
1 7 8 11 14 15 16 17 19 22 23 24 26 29 33 39 40 44 46 52
1 4 8 10 11 16 19 23 27 28 31 32 33 34 36 41 47 50 52
2 3 7 8 11 13 15 16 21 22 24 27 28 32 33 35 36 37 39 40 41 42 45 50 51 52 53
3 5 10 11 12 13 19 22 23 24 25 28 29 30 31 33 35 37 39 44 46 48 49 50 52 53
2 3 4 11 13 14 15 17 18 21 22 23 24 25 27 28 31 32 34 35 39 40 41 42 45 50 51 53
0 3 5 9 10 11 12 13 21 27 28 31 32 33 34 36 39 43 50
2 3 4 7 9 10 11 13 14 16 17 21 24 28 30 32 33 35 37 38 39 40 45 51 53
5 6 7 10 18 19 22 27 29 30 31 32 33 34 37 38 39 41 45 50 52 53
0 1 4 5 7 8 9 11 13 14 22 24 27 29 32 33 34 35 41 43 44 45 46 47 49 53
1 2 5 7 8 9 10 11 14 15 16 17 18 20 22 26 28 35 36 37 40 41 44 46 48 52
1 4 6 7 11 12 14 15 16 17 19 21 22 25 26 27 28 29 30 37 41 42 43 44 45 49 51
2 6 11 12 13 18 19 21 23 25 26 29 30 31 33 34 36 38 44 45 46 48 49 50
